solution status: optimal solution found
objective value:                                    0
$_4_y                                             -25 	(obj:0)
$_4_z                                             -19 	(obj:0)
$_7_y                                             -25 	(obj:0)
$_7_z                                             -25 	(obj:0)
$_2_y                                             -25 	(obj:0)
$_2_z                                             -20 	(obj:0)
$_9_y                                             -25 	(obj:0)
$_9_z                                             -21 	(obj:0)
